networks/zoo_14_17/zoo_14_17-lower.txt
Number of groups: 7
Flow 1: {1 2 0} {2 9 0} 
Flow 2: {2 4 0} {4 11 0} 
Flow 3: {2 7 0} {7 14 0} 
Flow 4: {2 1 0} {1 8 0} 
Flow 5: {2 3 0} {3 10 0} 
Flow 7: {4 5 0} {5 12 0} 
Flow 8: {2 6 0} {6 13 0} 
Flow 10: {5 4 0} {4 2 0} Flow 14: {6 2 0} Flow 16: {7 2 0} Time taken running everything: 1 seconds
