networks/zoo_14_17/zoo_14_17-lower.sol
<?xml version = "1.0" encoding="UTF-8" standalone="yes"?>
<CPLEXSolution version="1.2">
 <header
   problemName="networks/zoo_14_17/zoo_14_17-lower.lp"
   solutionName="incumbent"
   solutionIndex="-1"
   objectiveValue="7"
   solutionTypeValue="3"
   solutionTypeString="primal"
   solutionStatusValue="101"
   solutionStatusString="integer optimal solution"
   solutionMethodString="mip"
   primalFeasible="1"
   dualFeasible="1"
   MIPNodes="0"
   MIPIterations="0"
   writeLevel="3"/>
 <quality
   epInt="1.0000000000000001e-05"
   epRHS="9.9999999999999995e-07"
   maxIntInfeas="0"
   maxPrimalInfeas="0"
   maxX="1"
   maxSlack="1"/>
 <variables>
  <variable name="Y(1,2)" index="1" value="1"/>
  <variable name="Y(2,4)" index="17" value="1"/>
  <variable name="Y(3,7)" index="34" value="1"/>
  <variable name="Y(4,1)" index="42" value="1"/>
  <variable name="Y(5,3)" index="58" value="1"/>
  <variable name="Y(7,5)" index="88" value="1"/>
  <variable name="Y(8,6)" index="103" value="1"/>
  <variable name="X(1,2,1)" index="238" value="1"/>
  <variable name="X(1,8,4)" index="258" value="1"/>
  <variable name="X(2,1,4)" index="275" value="1"/>
  <variable name="X(2,3,5)" index="293" value="1"/>
  <variable name="X(2,4,2)" index="307" value="1"/>
  <variable name="X(2,6,8)" index="330" value="1"/>
  <variable name="X(2,7,3)" index="342" value="1"/>
  <variable name="X(2,9,1)" index="357" value="1"/>
  <variable name="X(3,10,5)" index="378" value="1"/>
  <variable name="X(4,2,10)" index="400" value="1"/>
  <variable name="X(4,5,7)" index="414" value="1"/>
  <variable name="X(4,11,2)" index="426" value="1"/>
  <variable name="X(5,4,10)" index="451" value="1"/>
  <variable name="X(5,12,7)" index="465" value="1"/>
  <variable name="X(6,2,14)" index="489" value="1"/>
  <variable name="X(6,13,8)" index="500" value="1"/>
  <variable name="X(7,2,16)" index="525" value="1"/>
  <variable name="X(7,14,3)" index="529" value="1"/>
 </variables>
</CPLEXSolution>
